doctor/saw/mulcomm2.prove0.cnf
p cnf 754 2213
-18 17 0
-18 2 0
18 -17 -2 0
-19 -17 0
-19 1 0
19 17 -1 0
-20 -19 0
-20 -18 0
20 19 18 0
-21 17 0
-21 3 0
21 -17 -3 0
-22 -21 0
-22 -19 0
22 21 19 0
-23 17 0
-23 4 0
23 -17 -4 0
-24 -23 0
-24 -19 0
24 23 19 0
-25 17 0
-25 5 0
25 -17 -5 0
-26 -25 0
-26 -19 0
26 25 19 0
-27 17 0
-27 6 0
27 -17 -6 0
-28 -27 0
-28 -19 0
28 27 19 0
-29 17 0
-29 7 0
29 -17 -7 0
-30 -29 0
-30 -19 0
30 29 19 0
-31 17 0
-31 8 0
31 -17 -8 0
-32 -31 0
-32 -19 0
32 31 19 0
-33 17 0
-33 9 0
33 -17 -9 0
-34 -33 0
-34 -19 0
34 33 19 0
-35 -32 0
-35 9 0
35 32 -9 0
-36 32 0
-36 -9 0
36 -32 9 0
-37 -36 0
-37 -35 0
37 36 35 0
-38 -30 0
-38 8 0
38 30 -8 0
-39 30 0
-39 -8 0
39 -30 8 0
-40 -39 0
-40 -38 0
40 39 38 0
-41 40 0
-41 35 0
41 -40 -35 0
-42 -40 0
-42 -35 0
42 40 35 0
-43 -42 0
-43 -41 0
43 42 41 0
-44 -41 0
-44 -38 0
44 41 38 0
-45 -28 0
-45 7 0
45 28 -7 0
-46 28 0
-46 -7 0
46 -28 7 0
-47 -46 0
-47 -45 0
47 46 45 0
-48 47 0
-48 -44 0
48 -47 44 0
-49 -47 0
-49 44 0
49 47 -44 0
-50 -49 0
-50 -48 0
50 49 48 0
-51 -48 0
-51 -45 0
51 48 45 0
-52 -26 0
-52 6 0
52 26 -6 0
-53 26 0
-53 -6 0
53 -26 6 0
-54 -53 0
-54 -52 0
54 53 52 0
-55 54 0
-55 -51 0
55 -54 51 0
-56 -54 0
-56 51 0
56 54 -51 0
-57 -56 0
-57 -55 0
57 56 55 0
-58 -55 0
-58 -52 0
58 55 52 0
-59 -24 0
-59 5 0
59 24 -5 0
-60 24 0
-60 -5 0
60 -24 5 0
-61 -60 0
-61 -59 0
61 60 59 0
-62 61 0
-62 -58 0
62 -61 58 0
-63 -61 0
-63 58 0
63 61 -58 0
-64 -63 0
-64 -62 0
64 63 62 0
-65 -62 0
-65 -59 0
65 62 59 0
-66 -22 0
-66 4 0
66 22 -4 0
-67 22 0
-67 -4 0
67 -22 4 0
-68 -67 0
-68 -66 0
68 67 66 0
-69 68 0
-69 -65 0
69 -68 65 0
-70 -68 0
-70 65 0
70 68 -65 0
-71 -70 0
-71 -69 0
71 70 69 0
-72 -69 0
-72 -66 0
72 69 66 0
-73 -20 0
-73 3 0
73 20 -3 0
-74 20 0
-74 -3 0
74 -20 3 0
-75 -74 0
-75 -73 0
75 74 73 0
-76 75 0
-76 -72 0
76 -75 72 0
-77 -75 0
-77 72 0
77 75 -72 0
-78 -77 0
-78 -76 0
78 77 76 0
-79 -76 0
-79 -73 0
79 76 73 0
-80 78 0
-80 16 0
80 -78 -16 0
-81 -20 0
-81 -16 0
81 20 16 0
-82 -81 0
-82 -80 0
82 81 80 0
-83 71 0
-83 16 0
83 -71 -16 0
-84 -22 0
-84 -16 0
84 22 16 0
-85 -84 0
-85 -83 0
85 84 83 0
-86 64 0
-86 16 0
86 -64 -16 0
-87 -24 0
-87 -16 0
87 24 16 0
-88 -87 0
-88 -86 0
88 87 86 0
-89 57 0
-89 16 0
89 -57 -16 0
-90 -26 0
-90 -16 0
90 26 16 0
-91 -90 0
-91 -89 0
91 90 89 0
-92 50 0
-92 16 0
92 -50 -16 0
-93 -28 0
-93 -16 0
93 28 16 0
-94 -93 0
-94 -92 0
94 93 92 0
-95 43 0
-95 16 0
95 -43 -16 0
-96 -30 0
-96 -16 0
96 30 16 0
-97 -96 0
-97 -95 0
97 96 95 0
-98 37 0
-98 16 0
98 -37 -16 0
-99 -32 0
-99 -16 0
99 32 16 0
-100 -99 0
-100 -98 0
100 99 98 0
-101 -34 0
-101 16 0
101 34 -16 0
-102 -34 0
-102 -16 0
102 34 16 0
-103 -102 0
-103 -101 0
103 102 101 0
-104 -97 0
-104 9 0
104 97 -9 0
-105 97 0
-105 -9 0
105 -97 9 0
-106 -105 0
-106 -104 0
106 105 104 0
-107 -94 0
-107 8 0
107 94 -8 0
-108 94 0
-108 -8 0
108 -94 8 0
-109 -108 0
-109 -107 0
109 108 107 0
-110 109 0
-110 104 0
110 -109 -104 0
-111 -109 0
-111 -104 0
111 109 104 0
-112 -111 0
-112 -110 0
112 111 110 0
-113 -110 0
-113 -107 0
113 110 107 0
-114 -91 0
-114 7 0
114 91 -7 0
-115 91 0
-115 -7 0
115 -91 7 0
-116 -115 0
-116 -114 0
116 115 114 0
-117 116 0
-117 -113 0
117 -116 113 0
-118 -116 0
-118 113 0
118 116 -113 0
-119 -118 0
-119 -117 0
119 118 117 0
-120 -117 0
-120 -114 0
120 117 114 0
-121 -88 0
-121 6 0
121 88 -6 0
-122 88 0
-122 -6 0
122 -88 6 0
-123 -122 0
-123 -121 0
123 122 121 0
-124 123 0
-124 -120 0
124 -123 120 0
-125 -123 0
-125 120 0
125 123 -120 0
-126 -125 0
-126 -124 0
126 125 124 0
-127 -124 0
-127 -121 0
127 124 121 0
-128 -85 0
-128 5 0
128 85 -5 0
-129 85 0
-129 -5 0
129 -85 5 0
-130 -129 0
-130 -128 0
130 129 128 0
-131 130 0
-131 -127 0
131 -130 127 0
-132 -130 0
-132 127 0
132 130 -127 0
-133 -132 0
-133 -131 0
133 132 131 0
-134 -131 0
-134 -128 0
134 131 128 0
-135 -82 0
-135 4 0
135 82 -4 0
-136 82 0
-136 -4 0
136 -82 4 0
-137 -136 0
-137 -135 0
137 136 135 0
-138 137 0
-138 -134 0
138 -137 134 0
-139 -137 0
-139 134 0
139 137 -134 0
-140 -139 0
-140 -138 0
140 139 138 0
-141 -138 0
-141 -135 0
141 138 135 0
-142 140 0
-142 15 0
142 -140 -15 0
-143 -82 0
-143 -15 0
143 82 15 0
-144 -143 0
-144 -142 0
144 143 142 0
-145 133 0
-145 15 0
145 -133 -15 0
-146 -85 0
-146 -15 0
146 85 15 0
-147 -146 0
-147 -145 0
147 146 145 0
-148 126 0
-148 15 0
148 -126 -15 0
-149 -88 0
-149 -15 0
149 88 15 0
-150 -149 0
-150 -148 0
150 149 148 0
-151 119 0
-151 15 0
151 -119 -15 0
-152 -91 0
-152 -15 0
152 91 15 0
-153 -152 0
-153 -151 0
153 152 151 0
-154 112 0
-154 15 0
154 -112 -15 0
-155 -94 0
-155 -15 0
155 94 15 0
-156 -155 0
-156 -154 0
156 155 154 0
-157 106 0
-157 15 0
157 -106 -15 0
-158 -97 0
-158 -15 0
158 97 15 0
-159 -158 0
-159 -157 0
159 158 157 0
-160 -100 0
-160 15 0
160 100 -15 0
-161 -100 0
-161 -15 0
161 100 15 0
-162 -161 0
-162 -160 0
162 161 160 0
-163 -103 0
-163 15 0
163 103 -15 0
-164 -103 0
-164 -15 0
164 103 15 0
-165 -164 0
-165 -163 0
165 164 163 0
-166 -156 0
-166 9 0
166 156 -9 0
-167 156 0
-167 -9 0
167 -156 9 0
-168 -167 0
-168 -166 0
168 167 166 0
-169 -153 0
-169 8 0
169 153 -8 0
-170 153 0
-170 -8 0
170 -153 8 0
-171 -170 0
-171 -169 0
171 170 169 0
-172 171 0
-172 166 0
172 -171 -166 0
-173 -171 0
-173 -166 0
173 171 166 0
-174 -173 0
-174 -172 0
174 173 172 0
-175 -172 0
-175 -169 0
175 172 169 0
-176 -150 0
-176 7 0
176 150 -7 0
-177 150 0
-177 -7 0
177 -150 7 0
-178 -177 0
-178 -176 0
178 177 176 0
-179 178 0
-179 -175 0
179 -178 175 0
-180 -178 0
-180 175 0
180 178 -175 0
-181 -180 0
-181 -179 0
181 180 179 0
-182 -179 0
-182 -176 0
182 179 176 0
-183 -147 0
-183 6 0
183 147 -6 0
-184 147 0
-184 -6 0
184 -147 6 0
-185 -184 0
-185 -183 0
185 184 183 0
-186 185 0
-186 -182 0
186 -185 182 0
-187 -185 0
-187 182 0
187 185 -182 0
-188 -187 0
-188 -186 0
188 187 186 0
-189 -186 0
-189 -183 0
189 186 183 0
-190 -144 0
-190 5 0
190 144 -5 0
-191 144 0
-191 -5 0
191 -144 5 0
-192 -191 0
-192 -190 0
192 191 190 0
-193 192 0
-193 -189 0
193 -192 189 0
-194 -192 0
-194 189 0
194 192 -189 0
-195 -194 0
-195 -193 0
195 194 193 0
-196 -193 0
-196 -190 0
196 193 190 0
-197 195 0
-197 14 0
197 -195 -14 0
-198 -144 0
-198 -14 0
198 144 14 0
-199 -198 0
-199 -197 0
199 198 197 0
-200 188 0
-200 14 0
200 -188 -14 0
-201 -147 0
-201 -14 0
201 147 14 0
-202 -201 0
-202 -200 0
202 201 200 0
-203 181 0
-203 14 0
203 -181 -14 0
-204 -150 0
-204 -14 0
204 150 14 0
-205 -204 0
-205 -203 0
205 204 203 0
-206 174 0
-206 14 0
206 -174 -14 0
-207 -153 0
-207 -14 0
207 153 14 0
-208 -207 0
-208 -206 0
208 207 206 0
-209 168 0
-209 14 0
209 -168 -14 0
-210 -156 0
-210 -14 0
210 156 14 0
-211 -210 0
-211 -209 0
211 210 209 0
-212 -159 0
-212 14 0
212 159 -14 0
-213 -159 0
-213 -14 0
213 159 14 0
-214 -213 0
-214 -212 0
214 213 212 0
-215 -162 0
-215 14 0
215 162 -14 0
-216 -162 0
-216 -14 0
216 162 14 0
-217 -216 0
-217 -215 0
217 216 215 0
-218 -165 0
-218 14 0
218 165 -14 0
-219 -165 0
-219 -14 0
219 165 14 0
-220 -219 0
-220 -218 0
220 219 218 0
-221 -208 0
-221 9 0
221 208 -9 0
-222 208 0
-222 -9 0
222 -208 9 0
-223 -222 0
-223 -221 0
223 222 221 0
-224 -205 0
-224 8 0
224 205 -8 0
-225 205 0
-225 -8 0
225 -205 8 0
-226 -225 0
-226 -224 0
226 225 224 0
-227 226 0
-227 221 0
227 -226 -221 0
-228 -226 0
-228 -221 0
228 226 221 0
-229 -228 0
-229 -227 0
229 228 227 0
-230 -227 0
-230 -224 0
230 227 224 0
-231 -202 0
-231 7 0
231 202 -7 0
-232 202 0
-232 -7 0
232 -202 7 0
-233 -232 0
-233 -231 0
233 232 231 0
-234 233 0
-234 -230 0
234 -233 230 0
-235 -233 0
-235 230 0
235 233 -230 0
-236 -235 0
-236 -234 0
236 235 234 0
-237 -234 0
-237 -231 0
237 234 231 0
-238 -199 0
-238 6 0
238 199 -6 0
-239 199 0
-239 -6 0
239 -199 6 0
-240 -239 0
-240 -238 0
240 239 238 0
-241 240 0
-241 -237 0
241 -240 237 0
-242 -240 0
-242 237 0
242 240 -237 0
-243 -242 0
-243 -241 0
243 242 241 0
-244 -241 0
-244 -238 0
244 241 238 0
-245 243 0
-245 13 0
245 -243 -13 0
-246 -199 0
-246 -13 0
246 199 13 0
-247 -246 0
-247 -245 0
247 246 245 0
-248 236 0
-248 13 0
248 -236 -13 0
-249 -202 0
-249 -13 0
249 202 13 0
-250 -249 0
-250 -248 0
250 249 248 0
-251 229 0
-251 13 0
251 -229 -13 0
-252 -205 0
-252 -13 0
252 205 13 0
-253 -252 0
-253 -251 0
253 252 251 0
-254 223 0
-254 13 0
254 -223 -13 0
-255 -208 0
-255 -13 0
255 208 13 0
-256 -255 0
-256 -254 0
256 255 254 0
-257 -211 0
-257 13 0
257 211 -13 0
-258 -211 0
-258 -13 0
258 211 13 0
-259 -258 0
-259 -257 0
259 258 257 0
-260 -214 0
-260 13 0
260 214 -13 0
-261 -214 0
-261 -13 0
261 214 13 0
-262 -261 0
-262 -260 0
262 261 260 0
-263 -217 0
-263 13 0
263 217 -13 0
-264 -217 0
-264 -13 0
264 217 13 0
-265 -264 0
-265 -263 0
265 264 263 0
-266 -220 0
-266 13 0
266 220 -13 0
-267 -220 0
-267 -13 0
267 220 13 0
-268 -267 0
-268 -266 0
268 267 266 0
-269 -253 0
-269 9 0
269 253 -9 0
-270 253 0
-270 -9 0
270 -253 9 0
-271 -270 0
-271 -269 0
271 270 269 0
-272 -250 0
-272 8 0
272 250 -8 0
-273 250 0
-273 -8 0
273 -250 8 0
-274 -273 0
-274 -272 0
274 273 272 0
-275 274 0
-275 269 0
275 -274 -269 0
-276 -274 0
-276 -269 0
276 274 269 0
-277 -276 0
-277 -275 0
277 276 275 0
-278 -275 0
-278 -272 0
278 275 272 0
-279 -247 0
-279 7 0
279 247 -7 0
-280 247 0
-280 -7 0
280 -247 7 0
-281 -280 0
-281 -279 0
281 280 279 0
-282 281 0
-282 -278 0
282 -281 278 0
-283 -281 0
-283 278 0
283 281 -278 0
-284 -283 0
-284 -282 0
284 283 282 0
-285 -282 0
-285 -279 0
285 282 279 0
-286 284 0
-286 12 0
286 -284 -12 0
-287 -247 0
-287 -12 0
287 247 12 0
-288 -287 0
-288 -286 0
288 287 286 0
-289 277 0
-289 12 0
289 -277 -12 0
-290 -250 0
-290 -12 0
290 250 12 0
-291 -290 0
-291 -289 0
291 290 289 0
-292 271 0
-292 12 0
292 -271 -12 0
-293 -253 0
-293 -12 0
293 253 12 0
-294 -293 0
-294 -292 0
294 293 292 0
-295 -256 0
-295 12 0
295 256 -12 0
-296 -256 0
-296 -12 0
296 256 12 0
-297 -296 0
-297 -295 0
297 296 295 0
-298 -259 0
-298 12 0
298 259 -12 0
-299 -259 0
-299 -12 0
299 259 12 0
-300 -299 0
-300 -298 0
300 299 298 0
-301 -262 0
-301 12 0
301 262 -12 0
-302 -262 0
-302 -12 0
302 262 12 0
-303 -302 0
-303 -301 0
303 302 301 0
-304 -265 0
-304 12 0
304 265 -12 0
-305 -265 0
-305 -12 0
305 265 12 0
-306 -305 0
-306 -304 0
306 305 304 0
-307 -268 0
-307 12 0
307 268 -12 0
-308 -268 0
-308 -12 0
308 268 12 0
-309 -308 0
-309 -307 0
309 308 307 0
-310 -291 0
-310 9 0
310 291 -9 0
-311 291 0
-311 -9 0
311 -291 9 0
-312 -311 0
-312 -310 0
312 311 310 0
-313 -288 0
-313 8 0
313 288 -8 0
-314 288 0
-314 -8 0
314 -288 8 0
-315 -314 0
-315 -313 0
315 314 313 0
-316 315 0
-316 310 0
316 -315 -310 0
-317 -315 0
-317 -310 0
317 315 310 0
-318 -317 0
-318 -316 0
318 317 316 0
-319 -316 0
-319 -313 0
319 316 313 0
-320 318 0
-320 11 0
320 -318 -11 0
-321 -288 0
-321 -11 0
321 288 11 0
-322 -321 0
-322 -320 0
322 321 320 0
-323 312 0
-323 11 0
323 -312 -11 0
-324 -291 0
-324 -11 0
324 291 11 0
-325 -324 0
-325 -323 0
325 324 323 0
-326 -294 0
-326 11 0
326 294 -11 0
-327 -294 0
-327 -11 0
327 294 11 0
-328 -327 0
-328 -326 0
328 327 326 0
-329 -297 0
-329 11 0
329 297 -11 0
-330 -297 0
-330 -11 0
330 297 11 0
-331 -330 0
-331 -329 0
331 330 329 0
-332 -300 0
-332 11 0
332 300 -11 0
-333 -300 0
-333 -11 0
333 300 11 0
-334 -333 0
-334 -332 0
334 333 332 0
-335 -303 0
-335 11 0
335 303 -11 0
-336 -303 0
-336 -11 0
336 303 11 0
-337 -336 0
-337 -335 0
337 336 335 0
-338 -306 0
-338 11 0
338 306 -11 0
-339 -306 0
-339 -11 0
339 306 11 0
-340 -339 0
-340 -338 0
340 339 338 0
-341 -309 0
-341 11 0
341 309 -11 0
-342 -309 0
-342 -11 0
342 309 11 0
-343 -342 0
-343 -341 0
343 342 341 0
-344 -322 0
-344 9 0
344 322 -9 0
-345 322 0
-345 -9 0
345 -322 9 0
-346 -345 0
-346 -344 0
346 345 344 0
-347 346 0
-347 10 0
347 -346 -10 0
-348 -322 0
-348 -10 0
348 322 10 0
-349 -348 0
-349 -347 0
349 348 347 0
-350 -325 0
-350 10 0
350 325 -10 0
-351 -325 0
-351 -10 0
351 325 10 0
-352 -351 0
-352 -350 0
352 351 350 0
-353 -328 0
-353 10 0
353 328 -10 0
-354 -328 0
-354 -10 0
354 328 10 0
-355 -354 0
-355 -353 0
355 354 353 0
-356 -331 0
-356 10 0
356 331 -10 0
-357 -331 0
-357 -10 0
357 331 10 0
-358 -357 0
-358 -356 0
358 357 356 0
-359 -334 0
-359 10 0
359 334 -10 0
-360 -334 0
-360 -10 0
360 334 10 0
-361 -360 0
-361 -359 0
361 360 359 0
-362 -337 0
-362 10 0
362 337 -10 0
-363 -337 0
-363 -10 0
363 337 10 0
-364 -363 0
-364 -362 0
364 363 362 0
-365 -340 0
-365 10 0
365 340 -10 0
-366 -340 0
-366 -10 0
366 340 10 0
-367 -366 0
-367 -365 0
367 366 365 0
-368 -343 0
-368 10 0
368 343 -10 0
-369 -343 0
-369 -10 0
369 343 10 0
-370 -369 0
-370 -368 0
370 369 368 0
-371 10 0
-371 9 0
371 -10 -9 0
-372 -9 0
-372 1 0
372 9 -1 0
-373 -372 0
-373 -371 0
373 372 371 0
-374 11 0
-374 9 0
374 -11 -9 0
-375 -374 0
-375 -372 0
375 374 372 0
-376 12 0
-376 9 0
376 -12 -9 0
-377 -376 0
-377 -372 0
377 376 372 0
-378 13 0
-378 9 0
378 -13 -9 0
-379 -378 0
-379 -372 0
379 378 372 0
-380 14 0
-380 9 0
380 -14 -9 0
-381 -380 0
-381 -372 0
381 380 372 0
-382 15 0
-382 9 0
382 -15 -9 0
-383 -382 0
-383 -372 0
383 382 372 0
-384 16 0
-384 9 0
384 -16 -9 0
-385 -384 0
-385 -372 0
385 384 372 0
-386 -372 0
-386 -33 0
386 372 33 0
-387 -385 0
-387 17 0
387 385 -17 0
-388 385 0
-388 -17 0
388 -385 17 0
-389 -388 0
-389 -387 0
389 388 387 0
-390 -383 0
-390 16 0
390 383 -16 0
-391 383 0
-391 -16 0
391 -383 16 0
-392 -391 0
-392 -390 0
392 391 390 0
-393 392 0
-393 387 0
393 -392 -387 0
-394 -392 0
-394 -387 0
394 392 387 0
-395 -394 0
-395 -393 0
395 394 393 0
-396 -393 0
-396 -390 0
396 393 390 0
-397 -381 0
-397 15 0
397 381 -15 0
-398 381 0
-398 -15 0
398 -381 15 0
-399 -398 0
-399 -397 0
399 398 397 0
-400 399 0
-400 -396 0
400 -399 396 0
-401 -399 0
-401 396 0
401 399 -396 0
-402 -401 0
-402 -400 0
402 401 400 0
-403 -400 0
-403 -397 0
403 400 397 0
-404 -379 0
-404 14 0
404 379 -14 0
-405 379 0
-405 -14 0
405 -379 14 0
-406 -405 0
-406 -404 0
406 405 404 0
-407 406 0
-407 -403 0
407 -406 403 0
-408 -406 0
-408 403 0
408 406 -403 0
-409 -408 0
-409 -407 0
409 408 407 0
-410 -407 0
-410 -404 0
410 407 404 0
-411 -377 0
-411 13 0
411 377 -13 0
-412 377 0
-412 -13 0
412 -377 13 0
-413 -412 0
-413 -411 0
413 412 411 0
-414 413 0
-414 -410 0
414 -413 410 0
-415 -413 0
-415 410 0
415 413 -410 0
-416 -415 0
-416 -414 0
416 415 414 0
-417 -414 0
-417 -411 0
417 414 411 0
-418 -375 0
-418 12 0
418 375 -12 0
-419 375 0
-419 -12 0
419 -375 12 0
-420 -419 0
-420 -418 0
420 419 418 0
-421 420 0
-421 -417 0
421 -420 417 0
-422 -420 0
-422 417 0
422 420 -417 0
-423 -422 0
-423 -421 0
423 422 421 0
-424 -421 0
-424 -418 0
424 421 418 0
-425 -373 0
-425 11 0
425 373 -11 0
-426 373 0
-426 -11 0
426 -373 11 0
-427 -426 0
-427 -425 0
427 426 425 0
-428 427 0
-428 -424 0
428 -427 424 0
-429 -427 0
-429 424 0
429 427 -424 0
-430 -429 0
-430 -428 0
430 429 428 0
-431 -428 0
-431 -425 0
431 428 425 0
-432 430 0
-432 8 0
432 -430 -8 0
-433 -373 0
-433 -8 0
433 373 8 0
-434 -433 0
-434 -432 0
434 433 432 0
-435 423 0
-435 8 0
435 -423 -8 0
-436 -375 0
-436 -8 0
436 375 8 0
-437 -436 0
-437 -435 0
437 436 435 0
-438 416 0
-438 8 0
438 -416 -8 0
-439 -377 0
-439 -8 0
439 377 8 0
-440 -439 0
-440 -438 0
440 439 438 0
-441 409 0
-441 8 0
441 -409 -8 0
-442 -379 0
-442 -8 0
442 379 8 0
-443 -442 0
-443 -441 0
443 442 441 0
-444 402 0
-444 8 0
444 -402 -8 0
-445 -381 0
-445 -8 0
445 381 8 0
-446 -445 0
-446 -444 0
446 445 444 0
-447 395 0
-447 8 0
447 -395 -8 0
-448 -383 0
-448 -8 0
448 383 8 0
-449 -448 0
-449 -447 0
449 448 447 0
-450 389 0
-450 8 0
450 -389 -8 0
-451 -385 0
-451 -8 0
451 385 8 0
-452 -451 0
-452 -450 0
452 451 450 0
-453 -386 0
-453 8 0
453 386 -8 0
-454 -386 0
-454 -8 0
454 386 8 0
-455 -454 0
-455 -453 0
455 454 453 0
-456 -449 0
-456 17 0
456 449 -17 0
-457 449 0
-457 -17 0
457 -449 17 0
-458 -457 0
-458 -456 0
458 457 456 0
-459 -446 0
-459 16 0
459 446 -16 0
-460 446 0
-460 -16 0
460 -446 16 0
-461 -460 0
-461 -459 0
461 460 459 0
-462 461 0
-462 456 0
462 -461 -456 0
-463 -461 0
-463 -456 0
463 461 456 0
-464 -463 0
-464 -462 0
464 463 462 0
-465 -462 0
-465 -459 0
465 462 459 0
-466 -443 0
-466 15 0
466 443 -15 0
-467 443 0
-467 -15 0
467 -443 15 0
-468 -467 0
-468 -466 0
468 467 466 0
-469 468 0
-469 -465 0
469 -468 465 0
-470 -468 0
-470 465 0
470 468 -465 0
-471 -470 0
-471 -469 0
471 470 469 0
-472 -469 0
-472 -466 0
472 469 466 0
-473 -440 0
-473 14 0
473 440 -14 0
-474 440 0
-474 -14 0
474 -440 14 0
-475 -474 0
-475 -473 0
475 474 473 0
-476 475 0
-476 -472 0
476 -475 472 0
-477 -475 0
-477 472 0
477 475 -472 0
-478 -477 0
-478 -476 0
478 477 476 0
-479 -476 0
-479 -473 0
479 476 473 0
-480 -437 0
-480 13 0
480 437 -13 0
-481 437 0
-481 -13 0
481 -437 13 0
-482 -481 0
-482 -480 0
482 481 480 0
-483 482 0
-483 -479 0
483 -482 479 0
-484 -482 0
-484 479 0
484 482 -479 0
-485 -484 0
-485 -483 0
485 484 483 0
-486 -483 0
-486 -480 0
486 483 480 0
-487 -434 0
-487 12 0
487 434 -12 0
-488 434 0
-488 -12 0
488 -434 12 0
-489 -488 0
-489 -487 0
489 488 487 0
-490 489 0
-490 -486 0
490 -489 486 0
-491 -489 0
-491 486 0
491 489 -486 0
-492 -491 0
-492 -490 0
492 491 490 0
-493 -490 0
-493 -487 0
493 490 487 0
-494 492 0
-494 7 0
494 -492 -7 0
-495 -434 0
-495 -7 0
495 434 7 0
-496 -495 0
-496 -494 0
496 495 494 0
-497 485 0
-497 7 0
497 -485 -7 0
-498 -437 0
-498 -7 0
498 437 7 0
-499 -498 0
-499 -497 0
499 498 497 0
-500 478 0
-500 7 0
500 -478 -7 0
-501 -440 0
-501 -7 0
501 440 7 0
-502 -501 0
-502 -500 0
502 501 500 0
-503 471 0
-503 7 0
503 -471 -7 0
-504 -443 0
-504 -7 0
504 443 7 0
-505 -504 0
-505 -503 0
505 504 503 0
-506 464 0
-506 7 0
506 -464 -7 0
-507 -446 0
-507 -7 0
507 446 7 0
-508 -507 0
-508 -506 0
508 507 506 0
-509 458 0
-509 7 0
509 -458 -7 0
-510 -449 0
-510 -7 0
510 449 7 0
-511 -510 0
-511 -509 0
511 510 509 0
-512 -452 0
-512 7 0
512 452 -7 0
-513 -452 0
-513 -7 0
513 452 7 0
-514 -513 0
-514 -512 0
514 513 512 0
-515 -455 0
-515 7 0
515 455 -7 0
-516 -455 0
-516 -7 0
516 455 7 0
-517 -516 0
-517 -515 0
517 516 515 0
-518 -508 0
-518 17 0
518 508 -17 0
-519 508 0
-519 -17 0
519 -508 17 0
-520 -519 0
-520 -518 0
520 519 518 0
-521 -505 0
-521 16 0
521 505 -16 0
-522 505 0
-522 -16 0
522 -505 16 0
-523 -522 0
-523 -521 0
523 522 521 0
-524 523 0
-524 518 0
524 -523 -518 0
-525 -523 0
-525 -518 0
525 523 518 0
-526 -525 0
-526 -524 0
526 525 524 0
-527 -524 0
-527 -521 0
527 524 521 0
-528 -502 0
-528 15 0
528 502 -15 0
-529 502 0
-529 -15 0
529 -502 15 0
-530 -529 0
-530 -528 0
530 529 528 0
-531 530 0
-531 -527 0
531 -530 527 0
-532 -530 0
-532 527 0
532 530 -527 0
-533 -532 0
-533 -531 0
533 532 531 0
-534 -531 0
-534 -528 0
534 531 528 0
-535 -499 0
-535 14 0
535 499 -14 0
-536 499 0
-536 -14 0
536 -499 14 0
-537 -536 0
-537 -535 0
537 536 535 0
-538 537 0
-538 -534 0
538 -537 534 0
-539 -537 0
-539 534 0
539 537 -534 0
-540 -539 0
-540 -538 0
540 539 538 0
-541 -538 0
-541 -535 0
541 538 535 0
-542 -496 0
-542 13 0
542 496 -13 0
-543 496 0
-543 -13 0
543 -496 13 0
-544 -543 0
-544 -542 0
544 543 542 0
-545 544 0
-545 -541 0
545 -544 541 0
-546 -544 0
-546 541 0
546 544 -541 0
-547 -546 0
-547 -545 0
547 546 545 0
-548 -545 0
-548 -542 0
548 545 542 0
-549 547 0
-549 6 0
549 -547 -6 0
-550 -496 0
-550 -6 0
550 496 6 0
-551 -550 0
-551 -549 0
551 550 549 0
-552 540 0
-552 6 0
552 -540 -6 0
-553 -499 0
-553 -6 0
553 499 6 0
-554 -553 0
-554 -552 0
554 553 552 0
-555 533 0
-555 6 0
555 -533 -6 0
-556 -502 0
-556 -6 0
556 502 6 0
-557 -556 0
-557 -555 0
557 556 555 0
-558 526 0
-558 6 0
558 -526 -6 0
-559 -505 0
-559 -6 0
559 505 6 0
-560 -559 0
-560 -558 0
560 559 558 0
-561 520 0
-561 6 0
561 -520 -6 0
-562 -508 0
-562 -6 0
562 508 6 0
-563 -562 0
-563 -561 0
563 562 561 0
-564 -511 0
-564 6 0
564 511 -6 0
-565 -511 0
-565 -6 0
565 511 6 0
-566 -565 0
-566 -564 0
566 565 564 0
-567 -514 0
-567 6 0
567 514 -6 0
-568 -514 0
-568 -6 0
568 514 6 0
-569 -568 0
-569 -567 0
569 568 567 0
-570 -517 0
-570 6 0
570 517 -6 0
-571 -517 0
-571 -6 0
571 517 6 0
-572 -571 0
-572 -570 0
572 571 570 0
-573 -560 0
-573 17 0
573 560 -17 0
-574 560 0
-574 -17 0
574 -560 17 0
-575 -574 0
-575 -573 0
575 574 573 0
-576 -557 0
-576 16 0
576 557 -16 0
-577 557 0
-577 -16 0
577 -557 16 0
-578 -577 0
-578 -576 0
578 577 576 0
-579 578 0
-579 573 0
579 -578 -573 0
-580 -578 0
-580 -573 0
580 578 573 0
-581 -580 0
-581 -579 0
581 580 579 0
-582 -579 0
-582 -576 0
582 579 576 0
-583 -554 0
-583 15 0
583 554 -15 0
-584 554 0
-584 -15 0
584 -554 15 0
-585 -584 0
-585 -583 0
585 584 583 0
-586 585 0
-586 -582 0
586 -585 582 0
-587 -585 0
-587 582 0
587 585 -582 0
-588 -587 0
-588 -586 0
588 587 586 0
-589 -586 0
-589 -583 0
589 586 583 0
-590 -551 0
-590 14 0
590 551 -14 0
-591 551 0
-591 -14 0
591 -551 14 0
-592 -591 0
-592 -590 0
592 591 590 0
-593 592 0
-593 -589 0
593 -592 589 0
-594 -592 0
-594 589 0
594 592 -589 0
-595 -594 0
-595 -593 0
595 594 593 0
-596 -593 0
-596 -590 0
596 593 590 0
-597 595 0
-597 5 0
597 -595 -5 0
-598 -551 0
-598 -5 0
598 551 5 0
-599 -598 0
-599 -597 0
599 598 597 0
-600 588 0
-600 5 0
600 -588 -5 0
-601 -554 0
-601 -5 0
601 554 5 0
-602 -601 0
-602 -600 0
602 601 600 0
-603 581 0
-603 5 0
603 -581 -5 0
-604 -557 0
-604 -5 0
604 557 5 0
-605 -604 0
-605 -603 0
605 604 603 0
-606 575 0
-606 5 0
606 -575 -5 0
-607 -560 0
-607 -5 0
607 560 5 0
-608 -607 0
-608 -606 0
608 607 606 0
-609 -563 0
-609 5 0
609 563 -5 0
-610 -563 0
-610 -5 0
610 563 5 0
-611 -610 0
-611 -609 0
611 610 609 0
-612 -566 0
-612 5 0
612 566 -5 0
-613 -566 0
-613 -5 0
613 566 5 0
-614 -613 0
-614 -612 0
614 613 612 0
-615 -569 0
-615 5 0
615 569 -5 0
-616 -569 0
-616 -5 0
616 569 5 0
-617 -616 0
-617 -615 0
617 616 615 0
-618 -572 0
-618 5 0
618 572 -5 0
-619 -572 0
-619 -5 0
619 572 5 0
-620 -619 0
-620 -618 0
620 619 618 0
-621 -605 0
-621 17 0
621 605 -17 0
-622 605 0
-622 -17 0
622 -605 17 0
-623 -622 0
-623 -621 0
623 622 621 0
-624 -602 0
-624 16 0
624 602 -16 0
-625 602 0
-625 -16 0
625 -602 16 0
-626 -625 0
-626 -624 0
626 625 624 0
-627 626 0
-627 621 0
627 -626 -621 0
-628 -626 0
-628 -621 0
628 626 621 0
-629 -628 0
-629 -627 0
629 628 627 0
-630 -627 0
-630 -624 0
630 627 624 0
-631 -599 0
-631 15 0
631 599 -15 0
-632 599 0
-632 -15 0
632 -599 15 0
-633 -632 0
-633 -631 0
633 632 631 0
-634 633 0
-634 -630 0
634 -633 630 0
-635 -633 0
-635 630 0
635 633 -630 0
-636 -635 0
-636 -634 0
636 635 634 0
-637 -634 0
-637 -631 0
637 634 631 0
-638 636 0
-638 4 0
638 -636 -4 0
-639 -599 0
-639 -4 0
639 599 4 0
-640 -639 0
-640 -638 0
640 639 638 0
-641 629 0
-641 4 0
641 -629 -4 0
-642 -602 0
-642 -4 0
642 602 4 0
-643 -642 0
-643 -641 0
643 642 641 0
-644 623 0
-644 4 0
644 -623 -4 0
-645 -605 0
-645 -4 0
645 605 4 0
-646 -645 0
-646 -644 0
646 645 644 0
-647 -608 0
-647 4 0
647 608 -4 0
-648 -608 0
-648 -4 0
648 608 4 0
-649 -648 0
-649 -647 0
649 648 647 0
-650 -611 0
-650 4 0
650 611 -4 0
-651 -611 0
-651 -4 0
651 611 4 0
-652 -651 0
-652 -650 0
652 651 650 0
-653 -614 0
-653 4 0
653 614 -4 0
-654 -614 0
-654 -4 0
654 614 4 0
-655 -654 0
-655 -653 0
655 654 653 0
-656 -617 0
-656 4 0
656 617 -4 0
-657 -617 0
-657 -4 0
657 617 4 0
-658 -657 0
-658 -656 0
658 657 656 0
-659 -620 0
-659 4 0
659 620 -4 0
-660 -620 0
-660 -4 0
660 620 4 0
-661 -660 0
-661 -659 0
661 660 659 0
-662 -643 0
-662 17 0
662 643 -17 0
-663 643 0
-663 -17 0
663 -643 17 0
-664 -663 0
-664 -662 0
664 663 662 0
-665 -640 0
-665 16 0
665 640 -16 0
-666 640 0
-666 -16 0
666 -640 16 0
-667 -666 0
-667 -665 0
667 666 665 0
-668 667 0
-668 662 0
668 -667 -662 0
-669 -667 0
-669 -662 0
669 667 662 0
-670 -669 0
-670 -668 0
670 669 668 0
-671 -668 0
-671 -665 0
671 668 665 0
-672 670 0
-672 3 0
672 -670 -3 0
-673 -640 0
-673 -3 0
673 640 3 0
-674 -673 0
-674 -672 0
674 673 672 0
-675 664 0
-675 3 0
675 -664 -3 0
-676 -643 0
-676 -3 0
676 643 3 0
-677 -676 0
-677 -675 0
677 676 675 0
-678 -646 0
-678 3 0
678 646 -3 0
-679 -646 0
-679 -3 0
679 646 3 0
-680 -679 0
-680 -678 0
680 679 678 0
-681 -649 0
-681 3 0
681 649 -3 0
-682 -649 0
-682 -3 0
682 649 3 0
-683 -682 0
-683 -681 0
683 682 681 0
-684 -652 0
-684 3 0
684 652 -3 0
-685 -652 0
-685 -3 0
685 652 3 0
-686 -685 0
-686 -684 0
686 685 684 0
-687 -655 0
-687 3 0
687 655 -3 0
-688 -655 0
-688 -3 0
688 655 3 0
-689 -688 0
-689 -687 0
689 688 687 0
-690 -658 0
-690 3 0
690 658 -3 0
-691 -658 0
-691 -3 0
691 658 3 0
-692 -691 0
-692 -690 0
692 691 690 0
-693 -661 0
-693 3 0
693 661 -3 0
-694 -661 0
-694 -3 0
694 661 3 0
-695 -694 0
-695 -693 0
695 694 693 0
-696 -674 0
-696 17 0
696 674 -17 0
-697 674 0
-697 -17 0
697 -674 17 0
-698 -697 0
-698 -696 0
698 697 696 0
-699 698 0
-699 2 0
699 -698 -2 0
-700 -674 0
-700 -2 0
700 674 2 0
-701 -700 0
-701 -699 0
701 700 699 0
-702 -677 0
-702 2 0
702 677 -2 0
-703 -677 0
-703 -2 0
703 677 2 0
-704 -703 0
-704 -702 0
704 703 702 0
-705 -680 0
-705 2 0
705 680 -2 0
-706 -680 0
-706 -2 0
706 680 2 0
-707 -706 0
-707 -705 0
707 706 705 0
-708 -683 0
-708 2 0
708 683 -2 0
-709 -683 0
-709 -2 0
709 683 2 0
-710 -709 0
-710 -708 0
710 709 708 0
-711 -686 0
-711 2 0
711 686 -2 0
-712 -686 0
-712 -2 0
712 686 2 0
-713 -712 0
-713 -711 0
713 712 711 0
-714 -689 0
-714 2 0
714 689 -2 0
-715 -689 0
-715 -2 0
715 689 2 0
-716 -715 0
-716 -714 0
716 715 714 0
-717 -692 0
-717 2 0
717 692 -2 0
-718 -692 0
-718 -2 0
718 692 2 0
-719 -718 0
-719 -717 0
719 718 717 0
-720 -695 0
-720 2 0
720 695 -2 0
-721 -695 0
-721 -2 0
721 695 2 0
-722 -721 0
-722 -720 0
722 721 720 0
-723 701 0
-723 349 0
723 -701 -349 0
-724 -701 0
-724 -349 0
724 701 349 0
-725 -724 0
-725 -723 0
725 724 723 0
-726 -725 0
-726 -1 0
726 725 1 0
-727 704 0
-727 352 0
727 -704 -352 0
-728 -704 0
-728 -352 0
728 704 352 0
-729 -728 0
-729 -727 0
729 728 727 0
-730 -729 0
-730 726 0
730 729 -726 0
-731 707 0
-731 355 0
731 -707 -355 0
-732 -707 0
-732 -355 0
732 707 355 0
-733 -732 0
-733 -731 0
733 732 731 0
-734 -733 0
-734 730 0
734 733 -730 0
-735 710 0
-735 358 0
735 -710 -358 0
-736 -710 0
-736 -358 0
736 710 358 0
-737 -736 0
-737 -735 0
737 736 735 0
-738 -737 0
-738 734 0
738 737 -734 0
-739 713 0
-739 361 0
739 -713 -361 0
-740 -713 0
-740 -361 0
740 713 361 0
-741 -740 0
-741 -739 0
741 740 739 0
-742 -741 0
-742 738 0
742 741 -738 0
-743 716 0
-743 364 0
743 -716 -364 0
-744 -716 0
-744 -364 0
744 716 364 0
-745 -744 0
-745 -743 0
745 744 743 0
-746 -745 0
-746 742 0
746 745 -742 0
-747 719 0
-747 367 0
747 -719 -367 0
-748 -719 0
-748 -367 0
748 719 367 0
-749 -748 0
-749 -747 0
749 748 747 0
-750 -749 0
-750 746 0
750 749 -746 0
-751 722 0
-751 370 0
751 -722 -370 0
-752 -722 0
-752 -370 0
752 722 370 0
-753 -752 0
-753 -751 0
753 752 751 0
-754 -753 0
-754 750 0
754 753 -750 0
-754 0
-1 0
